(set-logic QF_LIA)
(declare-fun x0 () Int)
(declare-fun x1 () Int)
(declare-fun x2 () Int)
(declare-fun x3 () Int)
(declare-fun x4 () Int)
(declare-fun x5 () Int)
(declare-fun x6 () Int)
(declare-fun x7 () Int)
(declare-fun x8 () Int)
(declare-fun x9 () Int)
(declare-fun A0 () Bool)
(declare-fun A1 () Bool)
(declare-fun A2 () Bool)
(declare-fun A3 () Bool)
(declare-fun A4 () Bool)
(declare-fun A5 () Bool)
(declare-fun A6 () Bool)
(declare-fun A7 () Bool)
(declare-fun A8 () Bool)
(declare-fun A9 () Bool)
(assert (let ((.def_0 (* 1 x9))) (let ((.def_1 (< .def_0 1))) (let ((.def_2 (not .def_1))) (let ((.def_3 (or A1 .def_2))) (let ((.def_4 (* (- 1) x6))) (let ((.def_5 (* (- 1) x9))) (let ((.def_6 (+ .def_5 .def_4))) (let ((.def_7 (< .def_6 1))) (let ((.def_8 (< .def_5 1))) (let ((.def_9 (and .def_8 .def_7))) (let ((.def_10 (and .def_9 .def_3))) (let ((.def_11 (not .def_10))) (let ((.def_12 (not A4))) (let ((.def_13 (or A4 .def_12))) (let ((.def_14 (* (- 1) x8))) (let ((.def_15 (* 1 x2))) (let ((.def_16 (+ .def_15 .def_14))) (let ((.def_17 (< .def_16 1))) (let ((.def_18 (not .def_17))) (let ((.def_19 (* (- 1) x7))) (let ((.def_20 (* (- 1) x3))) (let ((.def_21 (+ .def_20 .def_19))) (let ((.def_22 (< .def_21 (- 1)))) (let ((.def_23 (not .def_22))) (let ((.def_24 (= .def_23 .def_18))) (let ((.def_25 (not .def_24))) (let ((.def_26 (and .def_25 .def_13))) (let ((.def_27 (not .def_26))) (let ((.def_28 (and .def_27 .def_11))) (let ((.def_29 (not .def_28))) (let ((.def_30 (* 1 x1))) (let ((.def_31 (< .def_30 1))) (let ((.def_32 (= A0 .def_31))) (let ((.def_33 (not .def_32))) (let ((.def_34 (* 1 x8))) (let ((.def_35 (+ .def_34 .def_0))) (let ((.def_36 (< .def_35 1))) (let ((.def_37 (not .def_36))) (let ((.def_38 (not A3))) (let ((.def_39 (or .def_38 .def_37))) (let ((.def_40 (not .def_39))) (let ((.def_41 (or .def_40 .def_33))) (let ((.def_42 (not .def_41))) (let ((.def_43 (= A0 .def_12))) (let ((.def_44 (* 1 x4))) (let ((.def_45 (< .def_44 1))) (let ((.def_46 (= A5 .def_45))) (let ((.def_47 (and .def_46 .def_43))) (let ((.def_48 (and .def_47 .def_42))) (let ((.def_49 (not .def_48))) (let ((.def_50 (and .def_49 .def_29))) (let ((.def_51 (not .def_50))) (let ((.def_52 (< .def_4 1))) (let ((.def_53 (not .def_52))) (let ((.def_54 (* 1 x3))) (let ((.def_55 (< .def_54 1))) (let ((.def_56 (not .def_55))) (let ((.def_57 (and .def_56 .def_53))) (let ((.def_58 (* (- 1) x1))) (let ((.def_59 (+ .def_44 .def_58))) (let ((.def_60 (< .def_59 (- 1)))) (let ((.def_61 (not A0))) (let ((.def_62 (and .def_61 .def_60))) (let ((.def_63 (not .def_62))) (let ((.def_64 (= .def_63 .def_57))) (let ((.def_65 (not .def_64))) (let ((.def_66 (* 1 x0))) (let ((.def_67 (* (- 1) x4))) (let ((.def_68 (+ .def_67 .def_66))) (let ((.def_69 (< .def_68 1))) (let ((.def_70 (* 1 x7))) (let ((.def_71 (< .def_70 1))) (let ((.def_72 (not .def_71))) (let ((.def_73 (and .def_72 .def_69))) (let ((.def_74 (< .def_59 1))) (let ((.def_75 (not .def_74))) (let ((.def_76 (= .def_75 .def_61))) (let ((.def_77 (not .def_76))) (let ((.def_78 (and .def_77 .def_73))) (let ((.def_79 (and .def_78 .def_65))) (let ((.def_80 (not .def_79))) (let ((.def_81 (or .def_12 A2))) (let ((.def_82 (not .def_81))) (let ((.def_83 (not A8))) (let ((.def_84 (not A2))) (let ((.def_85 (and .def_84 .def_83))) (let ((.def_86 (not .def_85))) (let ((.def_87 (= .def_86 .def_82))) (let ((.def_88 (not .def_87))) (let ((.def_89 (* (- 1) x0))) (let ((.def_90 (+ .def_15 .def_89))) (let ((.def_91 (< .def_90 (- 1)))) (let ((.def_92 (not .def_91))) (let ((.def_93 (+ .def_20 .def_44))) (let ((.def_94 (< .def_93 (- 1)))) (let ((.def_95 (not .def_94))) (let ((.def_96 (and .def_95 .def_92))) (let ((.def_97 (not .def_96))) (let ((.def_98 (< .def_19 (- 1)))) (let ((.def_99 (and .def_98 A8))) (let ((.def_100 (and .def_99 .def_97))) (let ((.def_101 (not .def_100))) (let ((.def_102 (and .def_101 .def_88))) (let ((.def_103 (not .def_102))) (let ((.def_104 (and .def_103 .def_80))) (let ((.def_105 (or .def_104 .def_51))) (let ((.def_106 (not .def_105))) (let ((.def_107 (= .def_83 .def_84))) (let ((.def_108 (not .def_107))) (let ((.def_109 (< .def_15 1))) (let ((.def_110 (not .def_109))) (let ((.def_111 (* (- 1) x5))) (let ((.def_112 (+ .def_111 .def_0))) (let ((.def_113 (< .def_112 (- 1)))) (let ((.def_114 (not .def_113))) (let ((.def_115 (and .def_114 .def_110))) (let ((.def_116 (not .def_115))) (let ((.def_117 (and .def_116 .def_108))) (let ((.def_118 (not .def_117))) (let ((.def_119 (+ .def_20 .def_34))) (let ((.def_120 (< .def_119 1))) (let ((.def_121 (not A7))) (let ((.def_122 (or .def_121 .def_120))) (let ((.def_123 (not .def_122))) (let ((.def_124 (< .def_58 1))) (let ((.def_125 (not .def_124))) (let ((.def_126 (and .def_125 .def_2))) (let ((.def_127 (not .def_126))) (let ((.def_128 (or .def_127 .def_123))) (let ((.def_129 (not .def_128))) (let ((.def_130 (and .def_129 .def_118))) (let ((.def_131 (not .def_130))) (let ((.def_132 (* 1 x5))) (let ((.def_133 (+ .def_89 .def_132))) (let ((.def_134 (< .def_133 1))) (let ((.def_135 (< .def_34 (- 1)))) (let ((.def_136 (or .def_135 .def_134))) (let ((.def_137 (and A8 A8))) (let ((.def_138 (not .def_137))) (let ((.def_139 (or .def_138 .def_136))) (let ((.def_140 (+ .def_66 .def_70))) (let ((.def_141 (< .def_140 (- 1)))) (let ((.def_142 (and .def_141 A8))) (let ((.def_143 (* 1 x6))) (let ((.def_144 (< .def_143 1))) (let ((.def_145 (and .def_144 .def_83))) (let ((.def_146 (not .def_145))) (let ((.def_147 (or .def_146 .def_142))) (let ((.def_148 (and .def_147 .def_139))) (let ((.def_149 (and .def_148 .def_131))) (let ((.def_150 (not .def_149))) (let ((.def_151 (and .def_84 .def_110))) (let ((.def_152 (not A9))) (let ((.def_153 (or .def_152 .def_152))) (let ((.def_154 (not .def_153))) (let ((.def_155 (or .def_154 .def_151))) (let ((.def_156 (not .def_155))) (let ((.def_157 (+ .def_66 .def_5))) (let ((.def_158 (< .def_157 1))) (let ((.def_159 (not A6))) (let ((.def_160 (and .def_159 .def_158))) (let ((.def_161 (not .def_160))) (let ((.def_162 (< .def_30 (- 1)))) (let ((.def_163 (+ .def_67 .def_30))) (let ((.def_164 (< .def_163 1))) (let ((.def_165 (not .def_164))) (let ((.def_166 (and .def_165 .def_162))) (let ((.def_167 (not .def_166))) (let ((.def_168 (and .def_167 .def_161))) (let ((.def_169 (and .def_168 .def_156))) (let ((.def_170 (not .def_169))) (let ((.def_171 (+ .def_20 .def_30))) (let ((.def_172 (< .def_171 1))) (let ((.def_173 (* (- 1) x2))) (let ((.def_174 (< .def_173 (- 1)))) (let ((.def_175 (and .def_174 .def_172))) (let ((.def_176 (< .def_89 (- 1)))) (let ((.def_177 (or A3 .def_176))) (let ((.def_178 (and .def_177 .def_175))) (let ((.def_179 (< .def_20 1))) (let ((.def_180 (not .def_179))) (let ((.def_181 (< .def_143 (- 1)))) (let ((.def_182 (or .def_181 .def_180))) (let ((.def_183 (+ .def_58 .def_173))) (let ((.def_184 (< .def_183 1))) (let ((.def_185 (not .def_184))) (let ((.def_186 (and .def_8 .def_185))) (let ((.def_187 (= .def_186 .def_182))) (let ((.def_188 (or .def_187 .def_178))) (let ((.def_189 (and .def_188 .def_170))) (let ((.def_190 (and .def_189 .def_150))) (let ((.def_191 (not .def_190))) (let ((.def_192 (and .def_191 .def_106))) (let ((.def_193 (not .def_192))) (let ((.def_194 (<= x9 1))) (let ((.def_195 (<= 0 x9))) (let ((.def_196 (<= x8 1))) (let ((.def_197 (<= 0 x8))) (let ((.def_198 (<= x7 1))) (let ((.def_199 (<= 0 x7))) (let ((.def_200 (<= x6 1))) (let ((.def_201 (<= 0 x6))) (let ((.def_202 (<= x5 1))) (let ((.def_203 (<= 0 x5))) (let ((.def_204 (<= x4 1))) (let ((.def_205 (<= 0 x4))) (let ((.def_206 (<= x3 1))) (let ((.def_207 (<= 0 x3))) (let ((.def_208 (<= x2 1))) (let ((.def_209 (<= 0 x2))) (let ((.def_210 (<= x1 1))) (let ((.def_211 (<= 0 x1))) (let ((.def_212 (<= x0 1))) (let ((.def_213 (<= 0 x0))) (let ((.def_214 (and .def_213 .def_212 .def_211 .def_210 .def_209 .def_208 .def_207 .def_206 .def_205 .def_204 .def_203 .def_202 .def_201 .def_200 .def_199 .def_198 .def_197 .def_196 .def_195 .def_194 .def_193))) .def_214))))))))))))))))))))))))))))))))))))))))))))))))))))))))))))))))))))))))))))))))))))))))))))))))))))))))))))))))))))))))))))))))))))))))))))))))))))))))))))))))))))))))))))))))))))))))))))))))))))))))))))))))))))))))
(check-sat)
